\* tsp *\
Minimize
OBJ: 877.544870648 assign_(1,_10) + 950.648725871 assign_(1,_11)
 + 1322.14447017 assign_(1,_12) + 1068.38663414 assign_(1,_13)
 + 834.200215776 assign_(1,_14) + 641.848891874 assign_(1,_15)
 + 1071.8717274 assign_(1,_16) + 635.05117904 assign_(1,_17)
 + 403.094281775 assign_(1,_18) + 264.690385167 assign_(1,_19)
 + 1323.07067083 assign_(1,_2) + 702.300505482 assign_(1,_20)
 + 1284.8988287 assign_(1,_3) + 435.721241162 assign_(1,_4)
 + 455.597410001 assign_(1,_5) + 1012.67615752 assign_(1,_6)
 + 897.762774902 assign_(1,_7) + 889.508291136 assign_(1,_8)
 + 1145.09824906 assign_(1,_9) + 485.083497967 assign_(10,_11)
 + 2067.15867799 assign_(10,_12) + 1927.252189 assign_(10,_13)
 + 1246.25880137 assign_(10,_14) + 660.863828636 assign_(10,_15)
 + 305.895406961 assign_(10,_16) + 599.437236081 assign_(10,_17)
 + 474.489199034 assign_(10,_18) + 876.915047197 assign_(10,_19)
 + 1451.87774967 assign_(10,_20) + 1859.51418387 assign_(11,_12)
 + 1856.30196897 assign_(11,_13) + 937.527066276 assign_(11,_14)
 + 394.964555372 assign_(11,_15) + 313.193231089 assign_(11,_16)
 + 982.102336826 assign_(11,_17) + 633.663948793 assign_(11,_18)
 + 809.554198309 assign_(11,_19) + 1301.21673829 assign_(11,_20)
 + 571.709716552 assign_(12,_13) + 950.816491233 assign_(12,_14)
 + 1475.36842856 assign_(12,_15) + 2128.07448178 assign_(12,_16)
 + 1956.87301581 assign_(12,_17) + 1646.07320615 assign_(12,_18)
 + 1202.79881942 assign_(12,_19) + 627.687820497 assign_(12,_20)
 + 1116.15411122 assign_(13,_14) + 1463.86474785 assign_(13,_15)
 + 2067.53016907 assign_(13,_16) + 1659.08529015 assign_(13,_17)
 + 1459.3042863 assign_(13,_18) + 1068.20269612 assign_(13,_19)
 + 587.676781913 assign_(13,_20) + 590.338885726 assign_(14,_15)
 + 1231.47919187 assign_(14,_16) + 1366.63235729 assign_(14,_17)
 + 944.239905956 assign_(14,_18) + 578.236110944 assign_(14,_19)
 + 538 assign_(14,_20) + 654.27899248 assign_(15,_16)
 + 915.89519051 assign_(15,_17) + 477.670388448 assign_(15,_18)
 + 442.512146726 assign_(15,_19) + 906.412709531 assign_(15,_20)
 + 901.221948246 assign_(16,_17) + 686.160331118 assign_(16,_18)
 + 999.527888555 assign_(16,_19) + 1542.11056672 assign_(16,_20)
 + 442.068999139 assign_(17,_18) + 814.037468425 assign_(17,_19)
 + 1336.67049044 assign_(17,_20) + 444.648175528 assign_(18,_19)
 + 1019.54548697 assign_(18,_20) + 578.564603134 assign_(19,_20)
 + 2139.0261803 assign_(2,_10) + 1994.95689176 assign_(2,_11)
 + 301.731668872 assign_(2,_12) + 352.899419098 assign_(2,_13)
 + 1141.81346988 assign_(2,_14) + 1601.14271694 assign_(2,_15)
 + 2239.51445631 assign_(2,_16) + 1942.81085029 assign_(2,_17)
 + 1688.71815292 assign_(2,_18) + 1262.19530977 assign_(2,_19)
 + 697.448205962 assign_(2,_20) + 1232.40780588 assign_(2,_3)
 + 1189.50115595 assign_(2,_4) + 1497.56635913 assign_(2,_5)
 + 403.773451331 assign_(2,_6) + 645.701169273 assign_(2,_7)
 + 433.613883542 assign_(2,_8) + 994.417417386 assign_(2,_9)
 + 1628.2978843 assign_(3,_10) + 1240.4128345 assign_(3,_11)
 + 961.990124689 assign_(3,_12) + 1330.97896302 assign_(3,_13)
 + 452.863113976 assign_(3,_14) + 971.619781602 assign_(3,_15)
 + 1552.5340576 assign_(3,_16) + 1812.41854989 assign_(3,_17)
 + 1381.57374034 assign_(3,_18) + 1031.02376306 assign_(3,_19)
 + 842.8125533 assign_(3,_20) + 1545.37827085 assign_(3,_4)
 + 1720.16045763 assign_(3,_5) + 889.336831577 assign_(3,_6)
 + 686.700080093 assign_(3,_7) + 1079.24510654 assign_(3,_8)
 + 245.489307303 assign_(3,_9) + 1259.12509307 assign_(4,_10)
 + 1385.36998668 assign_(4,_11) + 1287.99572981 assign_(4,_12)
 + 864.046873729 assign_(4,_13) + 1126.00044405 assign_(4,_14)
 + 1070.42841891 assign_(4,_15) + 1486.60687473 assign_(4,_16)
 + 840.371941464 assign_(4,_17) + 801.04931184 assign_(4,_18)
 + 648.049380835 assign_(4,_19) + 772.363256506 assign_(4,_20)
 + 311.014469117 assign_(4,_5) + 998.672118365 assign_(4,_6)
 + 988.603560584 assign_(4,_7) + 795.027043565 assign_(4,_8)
 + 1355.67437093 assign_(4,_9) + 1082.83054999 assign_(5,_10)
 + 1311.07589407 assign_(5,_11) + 1580.50023727 assign_(5,_12)
 + 1175.01531905 assign_(5,_13) + 1276.05681692 assign_(5,_14)
 + 1067.31485514 assign_(5,_15) + 1347.75739657 assign_(5,_16)
 + 574.909558105 assign_(5,_17) + 680.577695785 assign_(5,_18)
 + 719.573484781 assign_(5,_19) + 1022.71452517 assign_(5,_20)
 + 1282.30417608 assign_(5,_6) + 1238.11509966 assign_(5,_7)
 + 1093.15781111 assign_(5,_8) + 1557.84113439 assign_(5,_9)
 + 1773.60705907 assign_(6,_10) + 1598.69196533 assign_(6,_11)
 + 309.523827839 assign_(6,_12) + 446.700123125 assign_(6,_13)
 + 740.324928663 assign_(6,_14) + 1206.99668599 assign_(6,_15)
 + 1852.88801604 assign_(6,_16) + 1647.35211779 assign_(6,_17)
 + 1342.65185361 assign_(6,_18) + 901.892454786 assign_(6,_19)
 + 323.396042029 assign_(6,_20) + 243.805250149 assign_(6,_7)
 + 239.954162289 assign_(6,_8) + 643.904496024 assign_(6,_9)
 + 1585.20818822 assign_(7,_10) + 1374.55338201 assign_(7,_11)
 + 487.647413609 assign_(7,_12) + 653.118672218 assign_(7,_13)
 + 496.632661028 assign_(7,_14) + 988.16193005 assign_(7,_15)
 + 1640.4539006 assign_(7,_16) + 1526.64861707 assign_(7,_17)
 + 1180.18684961 assign_(7,_18) + 736.006114105 assign_(7,_19)
 + 216.813283726 assign_(7,_20) + 393.081416503 assign_(7,_8)
 + 445.789187846 assign_(7,_9) + 1714.14118438 assign_(8,_10)
 + 1605.39652423 assign_(8,_11) + 495.117157853 assign_(8,_12)
 + 273.029302457 assign_(8,_13) + 843.258560585 assign_(8,_14)
 + 1210.81171121 assign_(8,_15) + 1831.63424296 assign_(8,_16)
 + 1511.93419169 assign_(8,_17) + 1258.06995036 assign_(8,_18)
 + 840.021428298 assign_(8,_19) + 317.050469169 assign_(8,_20)
 + 836.495666456 assign_(8,_9) + 1617.15336317 assign_(9,_10)
 + 1284.61394979 assign_(9,_11) + 735.673840775 assign_(9,_12)
 + 1085.77161503 assign_(9,_13) + 371.940855513 assign_(9,_14)
 + 958.603150423 assign_(9,_15) + 1587.67408494 assign_(9,_16)
 + 1718.84845173 assign_(9,_17) + 1307.62571097 assign_(9,_18)
 + 910.198330036 assign_(9,_19) + 618.365587658 assign_(9,_20)
Subject To
10_twice: assign_(1,_10) + assign_(10,_11) + assign_(10,_12) + assign_(10,_13)
 + assign_(10,_14) + assign_(10,_15) + assign_(10,_16) + assign_(10,_17)
 + assign_(10,_18) + assign_(10,_19) + assign_(10,_20) + assign_(2,_10)
 + assign_(3,_10) + assign_(4,_10) + assign_(5,_10) + assign_(6,_10)
 + assign_(7,_10) + assign_(8,_10) + assign_(9,_10) = 2
11_twice: assign_(1,_11) + assign_(10,_11) + assign_(11,_12) + assign_(11,_13)
 + assign_(11,_14) + assign_(11,_15) + assign_(11,_16) + assign_(11,_17)
 + assign_(11,_18) + assign_(11,_19) + assign_(11,_20) + assign_(2,_11)
 + assign_(3,_11) + assign_(4,_11) + assign_(5,_11) + assign_(6,_11)
 + assign_(7,_11) + assign_(8,_11) + assign_(9,_11) = 2
12_twice: assign_(1,_12) + assign_(10,_12) + assign_(11,_12) + assign_(12,_13)
 + assign_(12,_14) + assign_(12,_15) + assign_(12,_16) + assign_(12,_17)
 + assign_(12,_18) + assign_(12,_19) + assign_(12,_20) + assign_(2,_12)
 + assign_(3,_12) + assign_(4,_12) + assign_(5,_12) + assign_(6,_12)
 + assign_(7,_12) + assign_(8,_12) + assign_(9,_12) = 2
13_twice: assign_(1,_13) + assign_(10,_13) + assign_(11,_13) + assign_(12,_13)
 + assign_(13,_14) + assign_(13,_15) + assign_(13,_16) + assign_(13,_17)
 + assign_(13,_18) + assign_(13,_19) + assign_(13,_20) + assign_(2,_13)
 + assign_(3,_13) + assign_(4,_13) + assign_(5,_13) + assign_(6,_13)
 + assign_(7,_13) + assign_(8,_13) + assign_(9,_13) = 2
14_twice: assign_(1,_14) + assign_(10,_14) + assign_(11,_14) + assign_(12,_14)
 + assign_(13,_14) + assign_(14,_15) + assign_(14,_16) + assign_(14,_17)
 + assign_(14,_18) + assign_(14,_19) + assign_(14,_20) + assign_(2,_14)
 + assign_(3,_14) + assign_(4,_14) + assign_(5,_14) + assign_(6,_14)
 + assign_(7,_14) + assign_(8,_14) + assign_(9,_14) = 2
15_twice: assign_(1,_15) + assign_(10,_15) + assign_(11,_15) + assign_(12,_15)
 + assign_(13,_15) + assign_(14,_15) + assign_(15,_16) + assign_(15,_17)
 + assign_(15,_18) + assign_(15,_19) + assign_(15,_20) + assign_(2,_15)
 + assign_(3,_15) + assign_(4,_15) + assign_(5,_15) + assign_(6,_15)
 + assign_(7,_15) + assign_(8,_15) + assign_(9,_15) = 2
16_twice: assign_(1,_16) + assign_(10,_16) + assign_(11,_16) + assign_(12,_16)
 + assign_(13,_16) + assign_(14,_16) + assign_(15,_16) + assign_(16,_17)
 + assign_(16,_18) + assign_(16,_19) + assign_(16,_20) + assign_(2,_16)
 + assign_(3,_16) + assign_(4,_16) + assign_(5,_16) + assign_(6,_16)
 + assign_(7,_16) + assign_(8,_16) + assign_(9,_16) = 2
17_twice: assign_(1,_17) + assign_(10,_17) + assign_(11,_17) + assign_(12,_17)
 + assign_(13,_17) + assign_(14,_17) + assign_(15,_17) + assign_(16,_17)
 + assign_(17,_18) + assign_(17,_19) + assign_(17,_20) + assign_(2,_17)
 + assign_(3,_17) + assign_(4,_17) + assign_(5,_17) + assign_(6,_17)
 + assign_(7,_17) + assign_(8,_17) + assign_(9,_17) = 2
18_twice: assign_(1,_18) + assign_(10,_18) + assign_(11,_18) + assign_(12,_18)
 + assign_(13,_18) + assign_(14,_18) + assign_(15,_18) + assign_(16,_18)
 + assign_(17,_18) + assign_(18,_19) + assign_(18,_20) + assign_(2,_18)
 + assign_(3,_18) + assign_(4,_18) + assign_(5,_18) + assign_(6,_18)
 + assign_(7,_18) + assign_(8,_18) + assign_(9,_18) = 2
19_twice: assign_(1,_19) + assign_(10,_19) + assign_(11,_19) + assign_(12,_19)
 + assign_(13,_19) + assign_(14,_19) + assign_(15,_19) + assign_(16,_19)
 + assign_(17,_19) + assign_(18,_19) + assign_(19,_20) + assign_(2,_19)
 + assign_(3,_19) + assign_(4,_19) + assign_(5,_19) + assign_(6,_19)
 + assign_(7,_19) + assign_(8,_19) + assign_(9,_19) = 2
1_twice: assign_(1,_10) + assign_(1,_11) + assign_(1,_12) + assign_(1,_13)
 + assign_(1,_14) + assign_(1,_15) + assign_(1,_16) + assign_(1,_17)
 + assign_(1,_18) + assign_(1,_19) + assign_(1,_2) + assign_(1,_20)
 + assign_(1,_3) + assign_(1,_4) + assign_(1,_5) + assign_(1,_6)
 + assign_(1,_7) + assign_(1,_8) + assign_(1,_9) = 2
20_twice: assign_(1,_20) + assign_(10,_20) + assign_(11,_20) + assign_(12,_20)
 + assign_(13,_20) + assign_(14,_20) + assign_(15,_20) + assign_(16,_20)
 + assign_(17,_20) + assign_(18,_20) + assign_(19,_20) + assign_(2,_20)
 + assign_(3,_20) + assign_(4,_20) + assign_(5,_20) + assign_(6,_20)
 + assign_(7,_20) + assign_(8,_20) + assign_(9,_20) = 2
2_twice: assign_(1,_2) + assign_(2,_10) + assign_(2,_11) + assign_(2,_12)
 + assign_(2,_13) + assign_(2,_14) + assign_(2,_15) + assign_(2,_16)
 + assign_(2,_17) + assign_(2,_18) + assign_(2,_19) + assign_(2,_20)
 + assign_(2,_3) + assign_(2,_4) + assign_(2,_5) + assign_(2,_6)
 + assign_(2,_7) + assign_(2,_8) + assign_(2,_9) = 2
3_twice: assign_(1,_3) + assign_(2,_3) + assign_(3,_10) + assign_(3,_11)
 + assign_(3,_12) + assign_(3,_13) + assign_(3,_14) + assign_(3,_15)
 + assign_(3,_16) + assign_(3,_17) + assign_(3,_18) + assign_(3,_19)
 + assign_(3,_20) + assign_(3,_4) + assign_(3,_5) + assign_(3,_6)
 + assign_(3,_7) + assign_(3,_8) + assign_(3,_9) = 2
4_twice: assign_(1,_4) + assign_(2,_4) + assign_(3,_4) + assign_(4,_10)
 + assign_(4,_11) + assign_(4,_12) + assign_(4,_13) + assign_(4,_14)
 + assign_(4,_15) + assign_(4,_16) + assign_(4,_17) + assign_(4,_18)
 + assign_(4,_19) + assign_(4,_20) + assign_(4,_5) + assign_(4,_6)
 + assign_(4,_7) + assign_(4,_8) + assign_(4,_9) = 2
5_twice: assign_(1,_5) + assign_(2,_5) + assign_(3,_5) + assign_(4,_5)
 + assign_(5,_10) + assign_(5,_11) + assign_(5,_12) + assign_(5,_13)
 + assign_(5,_14) + assign_(5,_15) + assign_(5,_16) + assign_(5,_17)
 + assign_(5,_18) + assign_(5,_19) + assign_(5,_20) + assign_(5,_6)
 + assign_(5,_7) + assign_(5,_8) + assign_(5,_9) = 2
6_twice: assign_(1,_6) + assign_(2,_6) + assign_(3,_6) + assign_(4,_6)
 + assign_(5,_6) + assign_(6,_10) + assign_(6,_11) + assign_(6,_12)
 + assign_(6,_13) + assign_(6,_14) + assign_(6,_15) + assign_(6,_16)
 + assign_(6,_17) + assign_(6,_18) + assign_(6,_19) + assign_(6,_20)
 + assign_(6,_7) + assign_(6,_8) + assign_(6,_9) = 2
7_twice: assign_(1,_7) + assign_(2,_7) + assign_(3,_7) + assign_(4,_7)
 + assign_(5,_7) + assign_(6,_7) + assign_(7,_10) + assign_(7,_11)
 + assign_(7,_12) + assign_(7,_13) + assign_(7,_14) + assign_(7,_15)
 + assign_(7,_16) + assign_(7,_17) + assign_(7,_18) + assign_(7,_19)
 + assign_(7,_20) + assign_(7,_8) + assign_(7,_9) = 2
8_twice: assign_(1,_8) + assign_(2,_8) + assign_(3,_8) + assign_(4,_8)
 + assign_(5,_8) + assign_(6,_8) + assign_(7,_8) + assign_(8,_10)
 + assign_(8,_11) + assign_(8,_12) + assign_(8,_13) + assign_(8,_14)
 + assign_(8,_15) + assign_(8,_16) + assign_(8,_17) + assign_(8,_18)
 + assign_(8,_19) + assign_(8,_20) + assign_(8,_9) = 2
9_twice: assign_(1,_9) + assign_(2,_9) + assign_(3,_9) + assign_(4,_9)
 + assign_(5,_9) + assign_(6,_9) + assign_(7,_9) + assign_(8,_9)
 + assign_(9,_10) + assign_(9,_11) + assign_(9,_12) + assign_(9,_13)
 + assign_(9,_14) + assign_(9,_15) + assign_(9,_16) + assign_(9,_17)
 + assign_(9,_18) + assign_(9,_19) + assign_(9,_20) = 2
elim__17,_18,_10,_16,_11,_15,_19,_1,_4,_5_: assign_(1,_12) + assign_(1,_13)
 + assign_(1,_14) + assign_(1,_2) + assign_(1,_20) + assign_(1,_3)
 + assign_(1,_6) + assign_(1,_7) + assign_(1,_8) + assign_(1,_9)
 + assign_(10,_12) + assign_(10,_13) + assign_(10,_14) + assign_(10,_20)
 + assign_(11,_12) + assign_(11,_13) + assign_(11,_14) + assign_(11,_20)
 + assign_(12,_15) + assign_(12,_16) + assign_(12,_17) + assign_(12,_18)
 + assign_(12,_19) + assign_(13,_15) + assign_(13,_16) + assign_(13,_17)
 + assign_(13,_18) + assign_(13,_19) + assign_(14,_15) + assign_(14,_16)
 + assign_(14,_17) + assign_(14,_18) + assign_(14,_19) + assign_(15,_20)
 + assign_(16,_20) + assign_(17,_20) + assign_(18,_20) + assign_(19,_20)
 + assign_(2,_10) + assign_(2,_11) + assign_(2,_15) + assign_(2,_16)
 + assign_(2,_17) + assign_(2,_18) + assign_(2,_19) + assign_(2,_4)
 + assign_(2,_5) + assign_(3,_10) + assign_(3,_11) + assign_(3,_15)
 + assign_(3,_16) + assign_(3,_17) + assign_(3,_18) + assign_(3,_19)
 + assign_(3,_4) + assign_(3,_5) + assign_(4,_12) + assign_(4,_13)
 + assign_(4,_14) + assign_(4,_20) + assign_(4,_6) + assign_(4,_7)
 + assign_(4,_8) + assign_(4,_9) + assign_(5,_12) + assign_(5,_13)
 + assign_(5,_14) + assign_(5,_20) + assign_(5,_6) + assign_(5,_7)
 + assign_(5,_8) + assign_(5,_9) + assign_(6,_10) + assign_(6,_11)
 + assign_(6,_15) + assign_(6,_16) + assign_(6,_17) + assign_(6,_18)
 + assign_(6,_19) + assign_(7,_10) + assign_(7,_11) + assign_(7,_15)
 + assign_(7,_16) + assign_(7,_17) + assign_(7,_18) + assign_(7,_19)
 + assign_(8,_10) + assign_(8,_11) + assign_(8,_15) + assign_(8,_16)
 + assign_(8,_17) + assign_(8,_18) + assign_(8,_19) + assign_(9,_10)
 + assign_(9,_11) + assign_(9,_15) + assign_(9,_16) + assign_(9,_17)
 + assign_(9,_18) + assign_(9,_19) >= 2
elim__19,_20,_7,_9,_3,_14,_15,_11,_16,_10,_18,_17,_5,_4,_1_: assign_(1,_12)
 + assign_(1,_13) + assign_(1,_2) + assign_(1,_6) + assign_(1,_8)
 + assign_(10,_12) + assign_(10,_13) + assign_(11,_12) + assign_(11,_13)
 + assign_(12,_14) + assign_(12,_15) + assign_(12,_16) + assign_(12,_17)
 + assign_(12,_18) + assign_(12,_19) + assign_(12,_20) + assign_(13,_14)
 + assign_(13,_15) + assign_(13,_16) + assign_(13,_17) + assign_(13,_18)
 + assign_(13,_19) + assign_(13,_20) + assign_(2,_10) + assign_(2,_11)
 + assign_(2,_14) + assign_(2,_15) + assign_(2,_16) + assign_(2,_17)
 + assign_(2,_18) + assign_(2,_19) + assign_(2,_20) + assign_(2,_3)
 + assign_(2,_4) + assign_(2,_5) + assign_(2,_7) + assign_(2,_9)
 + assign_(3,_12) + assign_(3,_13) + assign_(3,_6) + assign_(3,_8)
 + assign_(4,_12) + assign_(4,_13) + assign_(4,_6) + assign_(4,_8)
 + assign_(5,_12) + assign_(5,_13) + assign_(5,_6) + assign_(5,_8)
 + assign_(6,_10) + assign_(6,_11) + assign_(6,_14) + assign_(6,_15)
 + assign_(6,_16) + assign_(6,_17) + assign_(6,_18) + assign_(6,_19)
 + assign_(6,_20) + assign_(6,_7) + assign_(6,_9) + assign_(7,_12)
 + assign_(7,_13) + assign_(7,_8) + assign_(8,_10) + assign_(8,_11)
 + assign_(8,_14) + assign_(8,_15) + assign_(8,_16) + assign_(8,_17)
 + assign_(8,_18) + assign_(8,_19) + assign_(8,_20) + assign_(8,_9)
 + assign_(9,_12) + assign_(9,_13) >= 2
elim__8,_13,_2,_12,_6_: assign_(1,_12) + assign_(1,_13) + assign_(1,_2)
 + assign_(1,_6) + assign_(1,_8) + assign_(10,_12) + assign_(10,_13)
 + assign_(11,_12) + assign_(11,_13) + assign_(12,_14) + assign_(12,_15)
 + assign_(12,_16) + assign_(12,_17) + assign_(12,_18) + assign_(12,_19)
 + assign_(12,_20) + assign_(13,_14) + assign_(13,_15) + assign_(13,_16)
 + assign_(13,_17) + assign_(13,_18) + assign_(13,_19) + assign_(13,_20)
 + assign_(2,_10) + assign_(2,_11) + assign_(2,_14) + assign_(2,_15)
 + assign_(2,_16) + assign_(2,_17) + assign_(2,_18) + assign_(2,_19)
 + assign_(2,_20) + assign_(2,_3) + assign_(2,_4) + assign_(2,_5)
 + assign_(2,_7) + assign_(2,_9) + assign_(3,_12) + assign_(3,_13)
 + assign_(3,_6) + assign_(3,_8) + assign_(4,_12) + assign_(4,_13)
 + assign_(4,_6) + assign_(4,_8) + assign_(5,_12) + assign_(5,_13)
 + assign_(5,_6) + assign_(5,_8) + assign_(6,_10) + assign_(6,_11)
 + assign_(6,_14) + assign_(6,_15) + assign_(6,_16) + assign_(6,_17)
 + assign_(6,_18) + assign_(6,_19) + assign_(6,_20) + assign_(6,_7)
 + assign_(6,_9) + assign_(7,_12) + assign_(7,_13) + assign_(7,_8)
 + assign_(8,_10) + assign_(8,_11) + assign_(8,_14) + assign_(8,_15)
 + assign_(8,_16) + assign_(8,_17) + assign_(8,_18) + assign_(8,_19)
 + assign_(8,_20) + assign_(8,_9) + assign_(9,_12) + assign_(9,_13) >= 2
elim__8,_20,_7,_6,_12,_2,_13_: assign_(1,_12) + assign_(1,_13) + assign_(1,_2)
 + assign_(1,_20) + assign_(1,_6) + assign_(1,_7) + assign_(1,_8)
 + assign_(10,_12) + assign_(10,_13) + assign_(10,_20) + assign_(11,_12)
 + assign_(11,_13) + assign_(11,_20) + assign_(12,_14) + assign_(12,_15)
 + assign_(12,_16) + assign_(12,_17) + assign_(12,_18) + assign_(12,_19)
 + assign_(13,_14) + assign_(13,_15) + assign_(13,_16) + assign_(13,_17)
 + assign_(13,_18) + assign_(13,_19) + assign_(14,_20) + assign_(15,_20)
 + assign_(16,_20) + assign_(17,_20) + assign_(18,_20) + assign_(19,_20)
 + assign_(2,_10) + assign_(2,_11) + assign_(2,_14) + assign_(2,_15)
 + assign_(2,_16) + assign_(2,_17) + assign_(2,_18) + assign_(2,_19)
 + assign_(2,_3) + assign_(2,_4) + assign_(2,_5) + assign_(2,_9)
 + assign_(3,_12) + assign_(3,_13) + assign_(3,_20) + assign_(3,_6)
 + assign_(3,_7) + assign_(3,_8) + assign_(4,_12) + assign_(4,_13)
 + assign_(4,_20) + assign_(4,_6) + assign_(4,_7) + assign_(4,_8)
 + assign_(5,_12) + assign_(5,_13) + assign_(5,_20) + assign_(5,_6)
 + assign_(5,_7) + assign_(5,_8) + assign_(6,_10) + assign_(6,_11)
 + assign_(6,_14) + assign_(6,_15) + assign_(6,_16) + assign_(6,_17)
 + assign_(6,_18) + assign_(6,_19) + assign_(6,_9) + assign_(7,_10)
 + assign_(7,_11) + assign_(7,_14) + assign_(7,_15) + assign_(7,_16)
 + assign_(7,_17) + assign_(7,_18) + assign_(7,_19) + assign_(7,_9)
 + assign_(8,_10) + assign_(8,_11) + assign_(8,_14) + assign_(8,_15)
 + assign_(8,_16) + assign_(8,_17) + assign_(8,_18) + assign_(8,_19)
 + assign_(8,_9) + assign_(9,_12) + assign_(9,_13) + assign_(9,_20) >= 2
elim__9,_14,_3_: assign_(1,_14) + assign_(1,_3) + assign_(1,_9)
 + assign_(10,_14) + assign_(11,_14) + assign_(12,_14) + assign_(13,_14)
 + assign_(14,_15) + assign_(14,_16) + assign_(14,_17) + assign_(14,_18)
 + assign_(14,_19) + assign_(14,_20) + assign_(2,_14) + assign_(2,_3)
 + assign_(2,_9) + assign_(3,_10) + assign_(3,_11) + assign_(3,_12)
 + assign_(3,_13) + assign_(3,_15) + assign_(3,_16) + assign_(3,_17)
 + assign_(3,_18) + assign_(3,_19) + assign_(3,_20) + assign_(3,_4)
 + assign_(3,_5) + assign_(3,_6) + assign_(3,_7) + assign_(3,_8)
 + assign_(4,_14) + assign_(4,_9) + assign_(5,_14) + assign_(5,_9)
 + assign_(6,_14) + assign_(6,_9) + assign_(7,_14) + assign_(7,_9)
 + assign_(8,_14) + assign_(8,_9) + assign_(9,_10) + assign_(9,_11)
 + assign_(9,_12) + assign_(9,_13) + assign_(9,_15) + assign_(9,_16)
 + assign_(9,_17) + assign_(9,_18) + assign_(9,_19) + assign_(9,_20) >= 2
Bounds
 assign_(1,_10) <= 1
 assign_(1,_11) <= 1
 assign_(1,_12) <= 1
 assign_(1,_13) <= 1
 assign_(1,_14) <= 1
 assign_(1,_15) <= 1
 assign_(1,_16) <= 1
 assign_(1,_17) <= 1
 assign_(1,_18) <= 1
 assign_(1,_19) <= 1
 assign_(1,_2) <= 1
 assign_(1,_20) <= 1
 assign_(1,_3) <= 1
 assign_(1,_4) <= 1
 assign_(1,_5) <= 1
 assign_(1,_6) <= 1
 assign_(1,_7) <= 1
 assign_(1,_8) <= 1
 assign_(1,_9) <= 1
 assign_(10,_11) <= 1
 assign_(10,_12) <= 1
 assign_(10,_13) <= 1
 assign_(10,_14) <= 1
 assign_(10,_15) <= 1
 assign_(10,_16) <= 1
 assign_(10,_17) <= 1
 assign_(10,_18) <= 1
 assign_(10,_19) <= 1
 assign_(10,_20) <= 1
 assign_(11,_12) <= 1
 assign_(11,_13) <= 1
 assign_(11,_14) <= 1
 assign_(11,_15) <= 1
 assign_(11,_16) <= 1
 assign_(11,_17) <= 1
 assign_(11,_18) <= 1
 assign_(11,_19) <= 1
 assign_(11,_20) <= 1
 assign_(12,_13) <= 1
 assign_(12,_14) <= 1
 assign_(12,_15) <= 1
 assign_(12,_16) <= 1
 assign_(12,_17) <= 1
 assign_(12,_18) <= 1
 assign_(12,_19) <= 1
 assign_(12,_20) <= 1
 assign_(13,_14) <= 1
 assign_(13,_15) <= 1
 assign_(13,_16) <= 1
 assign_(13,_17) <= 1
 assign_(13,_18) <= 1
 assign_(13,_19) <= 1
 assign_(13,_20) <= 1
 assign_(14,_15) <= 1
 assign_(14,_16) <= 1
 assign_(14,_17) <= 1
 assign_(14,_18) <= 1
 assign_(14,_19) <= 1
 assign_(14,_20) <= 1
 assign_(15,_16) <= 1
 assign_(15,_17) <= 1
 assign_(15,_18) <= 1
 assign_(15,_19) <= 1
 assign_(15,_20) <= 1
 assign_(16,_17) <= 1
 assign_(16,_18) <= 1
 assign_(16,_19) <= 1
 assign_(16,_20) <= 1
 assign_(17,_18) <= 1
 assign_(17,_19) <= 1
 assign_(17,_20) <= 1
 assign_(18,_19) <= 1
 assign_(18,_20) <= 1
 assign_(19,_20) <= 1
 assign_(2,_10) <= 1
 assign_(2,_11) <= 1
 assign_(2,_12) <= 1
 assign_(2,_13) <= 1
 assign_(2,_14) <= 1
 assign_(2,_15) <= 1
 assign_(2,_16) <= 1
 assign_(2,_17) <= 1
 assign_(2,_18) <= 1
 assign_(2,_19) <= 1
 assign_(2,_20) <= 1
 assign_(2,_3) <= 1
 assign_(2,_4) <= 1
 assign_(2,_5) <= 1
 assign_(2,_6) <= 1
 assign_(2,_7) <= 1
 assign_(2,_8) <= 1
 assign_(2,_9) <= 1
 assign_(3,_10) <= 1
 assign_(3,_11) <= 1
 assign_(3,_12) <= 1
 assign_(3,_13) <= 1
 assign_(3,_14) <= 1
 assign_(3,_15) <= 1
 assign_(3,_16) <= 1
 assign_(3,_17) <= 1
 assign_(3,_18) <= 1
 assign_(3,_19) <= 1
 assign_(3,_20) <= 1
 assign_(3,_4) <= 1
 assign_(3,_5) <= 1
 assign_(3,_6) <= 1
 assign_(3,_7) <= 1
 assign_(3,_8) <= 1
 assign_(3,_9) <= 1
 assign_(4,_10) <= 1
 assign_(4,_11) <= 1
 assign_(4,_12) <= 1
 assign_(4,_13) <= 1
 assign_(4,_14) <= 1
 assign_(4,_15) <= 1
 assign_(4,_16) <= 1
 assign_(4,_17) <= 1
 assign_(4,_18) <= 1
 assign_(4,_19) <= 1
 assign_(4,_20) <= 1
 assign_(4,_5) <= 1
 assign_(4,_6) <= 1
 assign_(4,_7) <= 1
 assign_(4,_8) <= 1
 assign_(4,_9) <= 1
 assign_(5,_10) <= 1
 assign_(5,_11) <= 1
 assign_(5,_12) <= 1
 assign_(5,_13) <= 1
 assign_(5,_14) <= 1
 assign_(5,_15) <= 1
 assign_(5,_16) <= 1
 assign_(5,_17) <= 1
 assign_(5,_18) <= 1
 assign_(5,_19) <= 1
 assign_(5,_20) <= 1
 assign_(5,_6) <= 1
 assign_(5,_7) <= 1
 assign_(5,_8) <= 1
 assign_(5,_9) <= 1
 assign_(6,_10) <= 1
 assign_(6,_11) <= 1
 assign_(6,_12) <= 1
 assign_(6,_13) <= 1
 assign_(6,_14) <= 1
 assign_(6,_15) <= 1
 assign_(6,_16) <= 1
 assign_(6,_17) <= 1
 assign_(6,_18) <= 1
 assign_(6,_19) <= 1
 assign_(6,_20) <= 1
 assign_(6,_7) <= 1
 assign_(6,_8) <= 1
 assign_(6,_9) <= 1
 assign_(7,_10) <= 1
 assign_(7,_11) <= 1
 assign_(7,_12) <= 1
 assign_(7,_13) <= 1
 assign_(7,_14) <= 1
 assign_(7,_15) <= 1
 assign_(7,_16) <= 1
 assign_(7,_17) <= 1
 assign_(7,_18) <= 1
 assign_(7,_19) <= 1
 assign_(7,_20) <= 1
 assign_(7,_8) <= 1
 assign_(7,_9) <= 1
 assign_(8,_10) <= 1
 assign_(8,_11) <= 1
 assign_(8,_12) <= 1
 assign_(8,_13) <= 1
 assign_(8,_14) <= 1
 assign_(8,_15) <= 1
 assign_(8,_16) <= 1
 assign_(8,_17) <= 1
 assign_(8,_18) <= 1
 assign_(8,_19) <= 1
 assign_(8,_20) <= 1
 assign_(8,_9) <= 1
 assign_(9,_10) <= 1
 assign_(9,_11) <= 1
 assign_(9,_12) <= 1
 assign_(9,_13) <= 1
 assign_(9,_14) <= 1
 assign_(9,_15) <= 1
 assign_(9,_16) <= 1
 assign_(9,_17) <= 1
 assign_(9,_18) <= 1
 assign_(9,_19) <= 1
 assign_(9,_20) <= 1
End
